; SWAP1 SWAP2 SWAP3 SWAP1 SWAP2 SWAP1 => SWAP2 SWAP3
(set-option :produce-proofs true)
; 
(set-info :status unknown)
(declare-fun storage_t ((_ BitVec 256) (_ BitVec 256) (_ BitVec 256) (_ BitVec 256) Int (_ BitVec 256)) (_ BitVec 256))
(declare-fun storage_s ((_ BitVec 256) (_ BitVec 256) (_ BitVec 256) (_ BitVec 256) Int (_ BitVec 256)) (_ BitVec 256))
(declare-fun exc_halt_t (Int) Bool)
(declare-fun exc_halt_s (Int) Bool)
(declare-fun sc_t (Int) (_ BitVec 6))
(declare-fun stack_t ((_ BitVec 256) (_ BitVec 256) (_ BitVec 256) (_ BitVec 256) Int (_ BitVec 6)) (_ BitVec 256))
(declare-fun stack_s ((_ BitVec 256) (_ BitVec 256) (_ BitVec 256) (_ BitVec 256) Int (_ BitVec 6)) (_ BitVec 256))
(declare-fun sc_s (Int) (_ BitVec 6))
(declare-fun used_gas_t ((_ BitVec 256) (_ BitVec 256) (_ BitVec 256) (_ BitVec 256) Int) Int)
(declare-fun used_gas_s ((_ BitVec 256) (_ BitVec 256) (_ BitVec 256) (_ BitVec 256) Int) Int)
(assert
 (exists ((x_0 (_ BitVec 256)) (x_1 (_ BitVec 256)) (x_2 (_ BitVec 256)) (x_3 (_ BitVec 256)) )(let (($x9202 (forall ((w (_ BitVec 256)) )(let ((?x11267 (storage_t x_0 x_1 x_2 x_3 2 w)))
 (let ((?x5248 (storage_s x_0 x_1 x_2 x_3 6 w)))
 (= ?x5248 ?x11267))))
 ))
 (let (($x2163 (exc_halt_t 2)))
 (let (($x772 (exc_halt_s 6)))
 (let (($x4742 (= $x772 $x2163)))
 (let (($x6200 (forall ((n (_ BitVec 6)) )(let ((?x2714 (sc_t 2)))
 (let (($x9222 (bvsle ?x2714 n)))
 (let ((?x1598 (stack_t x_0 x_1 x_2 x_3 2 n)))
 (let ((?x2388 (stack_s x_0 x_1 x_2 x_3 6 n)))
 (let (($x3541 (= ?x2388 ?x1598)))
 (or $x3541 $x9222)))))))
 ))
 (let ((?x2714 (sc_t 2)))
 (let ((?x926 (sc_s 6)))
 (let (($x7791 (= ?x926 ?x2714)))
 (let ((?x2585 (used_gas_t x_0 x_1 x_2 x_3 0)))
 (let ((?x4374 (used_gas_s x_0 x_1 x_2 x_3 0)))
 (let (($x4039 (= ?x4374 ?x2585)))
 (let (($x2683 (forall ((w (_ BitVec 256)) )(let ((?x5864 (storage_t x_0 x_1 x_2 x_3 0 w)))
 (let ((?x5261 (storage_s x_0 x_1 x_2 x_3 0 w)))
 (= ?x5261 ?x5864))))
 ))
 (let (($x56 (exc_halt_t 0)))
 (let (($x57 (exc_halt_s 0)))
 (let (($x58 (= $x57 $x56)))
 (let (($x3931 (forall ((n (_ BitVec 6)) )(let ((?x63 (sc_t 0)))
 (let (($x4230 (bvsle ?x63 n)))
 (let ((?x6057 (stack_t x_0 x_1 x_2 x_3 0 n)))
 (let ((?x9126 (stack_s x_0 x_1 x_2 x_3 0 n)))
 (let (($x1728 (= ?x9126 ?x6057)))
 (or $x1728 $x4230)))))))
 ))
 (let ((?x63 (sc_t 0)))
 (let ((?x72 (sc_s 0)))
 (let (($x73 (= ?x72 ?x63)))
 (let (($x1392 (= $x2163 (or (exc_halt_t 1) (not (bvsle (_ bv0 6) (bvadd (_ bv60 6) (sc_t 1))))))))
 (let (($x9943 (forall ((w (_ BitVec 256)) )(let ((?x2691 (storage_t x_0 x_1 x_2 x_3 1 w)))
 (let ((?x11267 (storage_t x_0 x_1 x_2 x_3 2 w)))
 (= ?x11267 ?x2691))))
 ))
 (let (($x469 (forall ((n (_ BitVec 6)) )(let ((?x6479 (stack_t x_0 x_1 x_2 x_3 1 n)))
 (let ((?x1598 (stack_t x_0 x_1 x_2 x_3 2 n)))
 (let (($x9622 (= ?x1598 ?x6479)))
 (or (bvsle (bvadd (_ bv60 6) (sc_t 1)) n) $x9622)))))
 ))
 (let ((?x7154 (sc_t 1)))
 (let (($x3683 (= ?x2714 ?x7154)))
 (let ((?x11618 (used_gas_t x_0 x_1 x_2 x_3 2)))
 (let (($x4058 (= ?x11618 (+ 3 (used_gas_t x_0 x_1 x_2 x_3 1)))))
 (let ((?x11182 (bvadd (_ bv62 6) ?x7154)))
 (let ((?x10279 (stack_t x_0 x_1 x_2 x_3 1 ?x11182)))
 (let ((?x3211 (bvadd (_ bv62 6) ?x2714)))
 (let ((?x401 (stack_t x_0 x_1 x_2 x_3 2 ?x3211)))
 (let (($x1504 (= ?x401 ?x10279)))
 (let ((?x5931 (bvadd (_ bv61 6) ?x7154)))
 (let ((?x7978 (stack_t x_0 x_1 x_2 x_3 1 ?x5931)))
 (let ((?x715 (bvadd (_ bv61 6) ?x2714)))
 (let ((?x10745 (stack_t x_0 x_1 x_2 x_3 2 ?x715)))
 (let ((?x10834 (bvadd (_ bv63 6) ?x7154)))
 (let ((?x7181 (stack_t x_0 x_1 x_2 x_3 1 ?x10834)))
 (let ((?x1060 (bvadd (_ bv60 6) ?x2714)))
 (let ((?x11117 (stack_t x_0 x_1 x_2 x_3 2 ?x1060)))
 (let ((?x4376 (bvadd (_ bv63 6) ?x2714)))
 (let ((?x5922 (stack_t x_0 x_1 x_2 x_3 2 ?x4376)))
 (let (($x7178 (forall ((w (_ BitVec 256)) )(let ((?x5864 (storage_t x_0 x_1 x_2 x_3 0 w)))
 (let ((?x2691 (storage_t x_0 x_1 x_2 x_3 1 w)))
 (= ?x2691 ?x5864))))
 ))
 (let (($x2429 (forall ((n (_ BitVec 6)) )(let ((?x6057 (stack_t x_0 x_1 x_2 x_3 0 n)))
 (let ((?x6479 (stack_t x_0 x_1 x_2 x_3 1 n)))
 (let (($x11595 (= ?x6479 ?x6057)))
 (or (bvsle (bvadd (_ bv61 6) (sc_t 0)) n) $x11595)))))
 ))
 (let (($x2545 (= ?x7154 ?x63)))
 (let ((?x1476 (used_gas_t x_0 x_1 x_2 x_3 1)))
 (let (($x8533 (= ?x1476 (+ 3 ?x2585))))
 (let (($x7592 (= $x772 (or (exc_halt_s 5) (not (bvsle (_ bv0 6) (bvadd (_ bv62 6) (sc_s 5))))))))
 (let (($x1489 (forall ((w (_ BitVec 256)) )(let ((?x9751 (storage_s x_0 x_1 x_2 x_3 5 w)))
 (let ((?x5248 (storage_s x_0 x_1 x_2 x_3 6 w)))
 (= ?x5248 ?x9751))))
 ))
 (let (($x4457 (forall ((n (_ BitVec 6)) )(let ((?x8271 (stack_s x_0 x_1 x_2 x_3 5 n)))
 (let ((?x2388 (stack_s x_0 x_1 x_2 x_3 6 n)))
 (let (($x7348 (= ?x2388 ?x8271)))
 (let ((?x4319 (sc_s 5)))
 (let ((?x2125 (bvadd (_ bv62 6) ?x4319)))
 (let (($x3333 (bvsle ?x2125 n)))
 (or $x3333 $x7348))))))))
 ))
 (let ((?x4319 (sc_s 5)))
 (let (($x4573 (= ?x926 ?x4319)))
 (let (($x6100 (= (used_gas_s x_0 x_1 x_2 x_3 6) (+ 3 (used_gas_s x_0 x_1 x_2 x_3 5)))))
 (let ((?x5971 (bvadd (_ bv63 6) ?x4319)))
 (let ((?x6519 (stack_s x_0 x_1 x_2 x_3 5 ?x5971)))
 (let ((?x11341 (bvadd (_ bv62 6) ?x926)))
 (let ((?x3769 (stack_s x_0 x_1 x_2 x_3 6 ?x11341)))
 (let ((?x2125 (bvadd (_ bv62 6) ?x4319)))
 (let ((?x8445 (stack_s x_0 x_1 x_2 x_3 5 ?x2125)))
 (let ((?x8530 (bvadd (_ bv63 6) ?x926)))
 (let ((?x8405 (stack_s x_0 x_1 x_2 x_3 6 ?x8530)))
 (let (($x11317 (exc_halt_s 5)))
 (let (($x5003 (= $x11317 (or (exc_halt_s 4) (not (bvsle (_ bv0 6) (bvadd (_ bv61 6) (sc_s 4))))))))
 (let (($x6062 (forall ((w (_ BitVec 256)) )(let ((?x1830 (storage_s x_0 x_1 x_2 x_3 4 w)))
 (let ((?x9751 (storage_s x_0 x_1 x_2 x_3 5 w)))
 (= ?x9751 ?x1830))))
 ))
 (let (($x10654 (forall ((n (_ BitVec 6)) )(let ((?x6428 (stack_s x_0 x_1 x_2 x_3 4 n)))
 (let ((?x8271 (stack_s x_0 x_1 x_2 x_3 5 n)))
 (let (($x11017 (= ?x8271 ?x6428)))
 (let ((?x4305 (sc_s 4)))
 (let ((?x4514 (bvadd (_ bv61 6) ?x4305)))
 (let (($x1944 (bvsle ?x4514 n)))
 (or $x1944 $x11017))))))))
 ))
 (let ((?x4305 (sc_s 4)))
 (let (($x780 (= ?x4319 ?x4305)))
 (let ((?x8897 (used_gas_s x_0 x_1 x_2 x_3 5)))
 (let (($x8285 (= ?x8897 (+ 3 (used_gas_s x_0 x_1 x_2 x_3 4)))))
 (let ((?x4739 (bvadd (_ bv63 6) ?x4305)))
 (let ((?x5693 (stack_s x_0 x_1 x_2 x_3 4 ?x4739)))
 (let ((?x5269 (bvadd (_ bv61 6) ?x4319)))
 (let ((?x5880 (stack_s x_0 x_1 x_2 x_3 5 ?x5269)))
 (let (($x7172 (exc_halt_s 4)))
 (let (($x6875 (= $x7172 (or (exc_halt_s 3) (not (bvsle (_ bv0 6) (bvadd (_ bv62 6) (sc_s 3))))))))
 (let (($x11806 (forall ((w (_ BitVec 256)) )(let ((?x1771 (storage_s x_0 x_1 x_2 x_3 3 w)))
 (let ((?x1830 (storage_s x_0 x_1 x_2 x_3 4 w)))
 (= ?x1830 ?x1771))))
 ))
 (let (($x4600 (forall ((n (_ BitVec 6)) )(let ((?x275 (sc_s 3)))
 (let ((?x10705 (bvadd (_ bv62 6) ?x275)))
 (let (($x4453 (bvsle ?x10705 n)))
 (let ((?x11025 (stack_s x_0 x_1 x_2 x_3 3 n)))
 (let ((?x6428 (stack_s x_0 x_1 x_2 x_3 4 n)))
 (or (= ?x6428 ?x11025) $x4453)))))))
 ))
 (let ((?x275 (sc_s 3)))
 (let (($x10065 (= ?x4305 ?x275)))
 (let ((?x10440 (used_gas_s x_0 x_1 x_2 x_3 4)))
 (let (($x7404 (= ?x10440 (+ 3 (used_gas_s x_0 x_1 x_2 x_3 3)))))
 (let ((?x10876 (bvadd (_ bv63 6) ?x275)))
 (let ((?x5422 (stack_s x_0 x_1 x_2 x_3 3 ?x10876)))
 (let ((?x8930 (bvadd (_ bv62 6) ?x4305)))
 (let ((?x4062 (stack_s x_0 x_1 x_2 x_3 4 ?x8930)))
 (let (($x292 (exc_halt_s 3)))
 (let (($x134 (= $x292 (or (exc_halt_s 2) (not (bvsle (_ bv0 6) (bvadd (_ bv60 6) (sc_s 2))))))))
 (let (($x4110 (forall ((w (_ BitVec 256)) )(let ((?x207 (storage_s x_0 x_1 x_2 x_3 2 w)))
 (let ((?x1771 (storage_s x_0 x_1 x_2 x_3 3 w)))
 (= ?x1771 ?x207))))
 ))
 (let (($x1369 (forall ((n (_ BitVec 6)) )(let ((?x5575 (stack_s x_0 x_1 x_2 x_3 2 n)))
 (let ((?x11025 (stack_s x_0 x_1 x_2 x_3 3 n)))
 (or (= ?x11025 ?x5575) (bvsle (bvadd (_ bv60 6) (sc_s 2)) n)))))
 ))
 (let ((?x218 (sc_s 2)))
 (let (($x7483 (= ?x275 ?x218)))
 (let ((?x7691 (used_gas_s x_0 x_1 x_2 x_3 3)))
 (let (($x6537 (= ?x7691 (+ 3 (used_gas_s x_0 x_1 x_2 x_3 2)))))
 (let ((?x11299 (bvadd (_ bv62 6) ?x218)))
 (let ((?x9976 (stack_s x_0 x_1 x_2 x_3 2 ?x11299)))
 (let ((?x10705 (bvadd (_ bv62 6) ?x275)))
 (let ((?x2041 (stack_s x_0 x_1 x_2 x_3 3 ?x10705)))
 (let (($x2203 (= ?x2041 ?x9976)))
 (let ((?x10200 (stack_s x_0 x_1 x_2 x_3 2 (bvadd (_ bv61 6) ?x218))))
 (let (($x9898 (= (stack_s x_0 x_1 x_2 x_3 3 (bvadd (_ bv61 6) ?x275)) ?x10200)))
 (let ((?x4853 (bvadd (_ bv63 6) ?x218)))
 (let ((?x6390 (stack_s x_0 x_1 x_2 x_3 2 ?x4853)))
 (let (($x4689 (= (stack_s x_0 x_1 x_2 x_3 3 (bvadd (_ bv60 6) ?x275)) ?x6390)))
 (let (($x11488 (= ?x5422 (stack_s x_0 x_1 x_2 x_3 2 (bvadd (_ bv60 6) ?x218)))))
 (let (($x247 (exc_halt_s 2)))
 (let (($x4868 (= $x247 (or (exc_halt_s 1) (not (bvsle (_ bv0 6) (bvadd (_ bv61 6) (sc_s 1))))))))
 (let (($x2685 (forall ((w (_ BitVec 256)) )(let ((?x9139 (storage_s x_0 x_1 x_2 x_3 1 w)))
 (let ((?x207 (storage_s x_0 x_1 x_2 x_3 2 w)))
 (= ?x207 ?x9139))))
 ))
 (let (($x8468 (forall ((n (_ BitVec 6)) )(let ((?x3038 (stack_s x_0 x_1 x_2 x_3 1 n)))
 (let ((?x5575 (stack_s x_0 x_1 x_2 x_3 2 n)))
 (let (($x6600 (= ?x5575 ?x3038)))
 (or $x6600 (bvsle (bvadd (_ bv61 6) (sc_s 1)) n))))))
 ))
 (let ((?x154 (sc_s 1)))
 (let (($x8545 (= ?x218 ?x154)))
 (let ((?x6608 (used_gas_s x_0 x_1 x_2 x_3 2)))
 (let (($x10048 (= ?x6608 (+ 3 (used_gas_s x_0 x_1 x_2 x_3 1)))))
 (let (($x11839 (forall ((w (_ BitVec 256)) )(let ((?x5261 (storage_s x_0 x_1 x_2 x_3 0 w)))
 (let ((?x9139 (storage_s x_0 x_1 x_2 x_3 1 w)))
 (= ?x9139 ?x5261))))
 ))
 (let (($x5615 (forall ((n (_ BitVec 6)) )(let ((?x72 (sc_s 0)))
 (let ((?x6828 (bvadd (_ bv62 6) ?x72)))
 (let (($x7964 (bvsle ?x6828 n)))
 (let ((?x9126 (stack_s x_0 x_1 x_2 x_3 0 n)))
 (let ((?x3038 (stack_s x_0 x_1 x_2 x_3 1 n)))
 (let (($x4461 (= ?x3038 ?x9126)))
 (or $x4461 $x7964))))))))
 ))
 (let (($x9070 (= ?x154 ?x72)))
 (let ((?x2969 (used_gas_s x_0 x_1 x_2 x_3 1)))
 (let (($x4686 (= ?x2969 (+ 3 ?x4374))))
 (let ((?x2529 (bvadd (_ bv63 6) ?x72)))
 (let ((?x8977 (stack_s x_0 x_1 x_2 x_3 0 ?x2529)))
 (let ((?x9486 (bvadd (_ bv62 6) ?x154)))
 (let ((?x9517 (stack_s x_0 x_1 x_2 x_3 1 ?x9486)))
 (let ((?x6828 (bvadd (_ bv62 6) ?x72)))
 (let ((?x6071 (stack_s x_0 x_1 x_2 x_3 0 ?x6828)))
 (let ((?x4263 (bvadd (_ bv63 6) ?x154)))
 (let ((?x11574 (stack_s x_0 x_1 x_2 x_3 1 ?x4263)))
 (let (($x4695 (forall ((w (_ BitVec 256)) )(let ((?x5261 (storage_s x_0 x_1 x_2 x_3 0 w)))
 (= ?x5261 (_ bv0 256))))
 ))
 (let (($x7383 (= ?x4374 0)))
 (let (($x5536 (not $x57)))
 (let (($x2188 (= (stack_s x_0 x_1 x_2 x_3 0 (_ bv3 6)) x_3)))
 (let (($x10222 (= (stack_s x_0 x_1 x_2 x_3 0 (_ bv2 6)) x_2)))
 (let (($x11419 (= (stack_s x_0 x_1 x_2 x_3 0 (_ bv1 6)) x_1)))
 (let (($x3766 (= (stack_s x_0 x_1 x_2 x_3 0 (_ bv0 6)) x_0)))
 (let (($x11199 (= ?x72 (_ bv4 6))))
 (and $x11199 $x3766 $x11419 $x10222 $x2188 $x5536 $x7383 $x4695 (= ?x11574 ?x6071) (= ?x9517 ?x8977) $x4686 $x9070 $x5615 $x11839 (= (exc_halt_s 1) (or $x57 (not (bvsle (_ bv0 6) ?x6828)))) (= ?x6390 (stack_s x_0 x_1 x_2 x_3 1 (bvadd (_ bv61 6) ?x154))) (= ?x10200 ?x11574) (= ?x9976 ?x9517) $x10048 $x8545 $x8468 $x2685 $x4868 $x11488 $x4689 $x9898 $x2203 $x6537 $x7483 $x1369 $x4110 $x134 (= ?x5693 ?x2041) (= ?x4062 ?x5422) $x7404 $x10065 $x4600 $x11806 $x6875 (= ?x6519 (stack_s x_0 x_1 x_2 x_3 4 (bvadd (_ bv61 6) ?x4305))) (= ?x5880 ?x5693) (= ?x8445 ?x4062) $x8285 $x780 $x10654 $x6062 $x5003 (= ?x8405 ?x8445) (= ?x3769 ?x6519) $x6100 $x4573 $x4457 $x1489 $x7592 (= ?x7181 (stack_t x_0 x_1 x_2 x_3 0 (bvadd (_ bv61 6) ?x63))) (= ?x7978 (stack_t x_0 x_1 x_2 x_3 0 (bvadd (_ bv63 6) ?x63))) (= ?x10279 (stack_t x_0 x_1 x_2 x_3 0 (bvadd (_ bv62 6) ?x63))) $x8533 $x2545 $x2429 $x7178 (= (exc_halt_t 1) (or $x56 (not (bvsle (_ bv0 6) (bvadd (_ bv61 6) ?x63))))) (= ?x5922 (stack_t x_0 x_1 x_2 x_3 1 (bvadd (_ bv60 6) ?x7154))) (= ?x11117 ?x7181) (= ?x10745 ?x7978) $x1504 $x4058 $x3683 $x469 $x9943 $x1392 $x73 $x3931 $x58 $x2683 $x4039 (not (and $x7791 $x6200 $x4742 $x9202))))))))))))))))))))))))))))))))))))))))))))))))))))))))))))))))))))))))))))))))))))))))))))))))))))))))))))))))))))))))))))))))))))))))
 )
(check-sat)
(get-proof)
